470314
14,22,58,43,91,72,84,48,54,71,61,92,88,85,18,78,38,2,80,47,73,103,9,4,62,77,93,23,83,34,55,106,49,104,41,95,36,45,26,32,98,19,11,94,33,25,82,3,6,40,50,60,21,15,102,27,10,28,44,59,66,76,89,30,12,29,13,35,105,101,63,53,86,46,57,70,96,51,37,87,79,39,5,16,100,64,65,20,17,81,42,99,1,24,90,56,52,8,31,69,7,75,67,68,97,74